g3 1 1 0	# problem cyclopentane
 2 0 14 0 0 	# vars, constraints, objectives, ranges, eqns
 0 13 0 0 0 0	# nonlinear constrs, objs; ccons: lin, nonlin, nd, nzlb
 0 0	# network constraints: nonlinear, linear
 0 2 0 	# nonlinear vars in constraints, objectives, both
 0 0 0 1	# linear network variables; functions; arith, flags
 0 0 0 0 0 	# discrete variables: binary, integer, nonlinear (b,c,o)
 0 20 	# nonzeros in Jacobian, obj. gradient
 0 0	# max name lengths: constraints, variables
 0 0 0 0 0	# common exprs: b,c,o,c1,o1
O0 0
o0
o54
6
o43
v0
o2
n3.0
o43
v1
o2
n1.34
o43
o0
o16
o44
o2
n-0.4494645509262878
v1
n1
o2
n13.4
o43
o0
o16
o44
o2
n-2.3059485656218244
v1
n1
o2
n17.4
o43
o0
o16
o44
o2
n-4.299226139294927
v1
n1
o2
n6.65
o43
o0
o16
o44
o2
n-10.161807238333463
v1
n1
n-0.3946233253
O1 0
o5
v0
n-1.0
O2 0
o16
o5
v0
n-2.0
O3 0
o0
o54
5
o2
n3.0
o5
v1
n-1.0
o2
o2
n67.57601813491753
o5
o0
o16
o44
o2
n-10.161807238333463
v1
n1.0
n-1.0
o44
o2
n-10.161807238333463
v1
o2
o2
n74.80653482373172
o5
o0
o16
o44
o2
n-4.299226139294927
v1
n1.0
n-1.0
o44
o2
n-4.299226139294927
v1
o2
o2
n0.6022824982412257
o5
o0
o16
o44
o2
n-0.4494645509262878
v1
n1.0
n-1.0
o44
o2
n-0.4494645509262878
v1
o2
o2
n30.899710779332448
o5
o0
o16
o44
o2
n-2.3059485656218244
v1
n1.0
n-1.0
o44
o2
n-2.3059485656218244
v1
n2.4918910143
O4 0
o54
9
o2
n-3.0
o5
v1
n-2.0
o2
o2
n-0.27070463260275524
o5
o0
o16
o44
o2
n-0.4494645509262878
v1
n1.0
n-1.0
o44
o2
n-0.4494645509262878
v1
o2
o2
n-0.27070463260275524
o5
o0
o16
o44
o2
n-0.4494645509262878
v1
n1.0
n-2.0
o44
o2
n-0.8989291018525756
v1
o2
o2
n-686.6944702211583
o5
o0
o16
o44
o2
n-10.161807238333463
v1
n1.0
n-1.0
o44
o2
n-10.161807238333463
v1
o2
o2
n-686.6944702211583
o5
o0
o16
o44
o2
n-10.161807238333463
v1
n1.0
n-2.0
o44
o2
n-20.323614476666926
v1
o2
o2
n-71.25314374973088
o5
o0
o16
o44
o2
n-2.3059485656218244
v1
n1.0
n-1.0
o44
o2
n-2.3059485656218244
v1
o2
o2
n-71.25314374973088
o5
o0
o16
o44
o2
n-2.3059485656218244
v1
n1.0
n-2.0
o44
o2
n-4.611897131243649
v1
o2
o2
n-321.6102099042636
o5
o0
o16
o44
o2
n-4.299226139294927
v1
n1.0
n-1.0
o44
o2
n-4.299226139294927
v1
o2
o2
n-321.6102099042636
o5
o0
o16
o44
o2
n-4.299226139294927
v1
n1.0
n-2.0
o44
o2
n-8.598452278589853
v1
O5 0
o54
15
o2
o2
n0.0630928
o5
v0
n4
v1
o2
o2
n1.50365
v0
o5
v1
n0.29
o2
o2
n-2.37099
v0
o5
v1
n0.85
o2
o2
n-0.484886
o5
v0
n2
o5
v1
n1.185
o2
o2
n0.191843
o5
v0
n3
o5
v1
n0.45
o2
o2
o2
n-0.835582
v0
o5
v1
n2.28
o44
o16
o5
v0
n2
o2
o2
o2
n-0.435929
o5
v0
n3
o5
v1
n1.8
o44
o16
o5
v0
n2
o2
o2
o2
n0.545607
o5
v0
n2
o5
v1
n1.5
o44
o2
n-1.0
v0
o2
o2
o2
n-0.209741
o5
v0
n2
o5
v1
n2.9
o44
o16
o5
v0
n2
o2
o2
o2
n-0.0387635
o5
v0
n7
o5
v1
n0.93
o44
o2
n-1.0
v0
o2
o2
o2
n0.677674
v0
o5
v1
n1.05
o44
o0
o2
n-0.86
o5
o0
v0
n-0.684
n2
o2
n-0.63
o5
o0
v1
n-1.22
n2
o2
o2
o2
n-0.137043
v0
o5
v1
n4.0
o44
o0
o2
n-0.85
o5
o0
v0
n-0.7
n2
o2
n-2.8
o5
o0
v1
n-0.32
n2
o2
o2
o2
n-0.0852862
o5
v0
n3
o5
v1
n2.33
o44
o0
o2
n-0.86
o5
o0
v0
n-0.77
n2
o2
n-0.5
o5
o0
v1
n-0.22
n2
o2
o2
o2
n-0.128085
o5
v0
n3
o5
v1
n1.5
o44
o0
o2
n-1.53
o5
o0
v0
n-0.625
n2
o2
n-0.95
o5
o0
v1
n-1.94
n2
o2
o2
o2
n-0.00389381
o5
v0
n2
v1
o44
o0
o2
n-5.13
o5
o0
v0
n-0.42
n2
o2
n-0.23
o5
o0
v1
n-1.21
n2
O6 0
o54
25
o2
n1.50365
o5
v1
n0.29
o2
n-2.37099
o5
v1
n0.85
o2
o2
n0.2523712
v1
o5
v0
n3.0
o2
o2
n0.5755290000000001
o5
v0
n2.0
o5
v1
n0.45
o2
o2
n0.677674
o5
v1
n1.05
o44
o0
o2
n-0.63
o5
o0
v1
n-1.22
n2.0
o2
n-0.86
o5
o0
v0
n-0.684
n2.0
o2
o2
n-0.835582
o5
v1
n2.28
o44
o16
o5
v0
n2.0
o2
o2
n-0.137043
o5
v1
n4.0
o44
o0
o2
n-2.8
o5
o0
v1
n-0.32
n2.0
o2
n-0.85
o5
o0
v0
n-0.7
n2.0
o2
o2
n-0.969772
v0
o5
v1
n1.185
o2
o2
o2
n1.091214
v0
o5
v1
n1.5
o44
o2
n-1.0
v0
o2
o2
o2
n1.671164
o5
v0
n2.0
o5
v1
n2.28
o44
o16
o5
v0
n2.0
o2
o2
o2
n0.871858
o5
v0
n4.0
o5
v1
n1.8
o44
o16
o5
v0
n2.0
o2
o2
o2
n0.419482
o5
v0
n3.0
o5
v1
n2.9
o44
o16
o5
v0
n2.0
o2
o2
o2
n0.0387635
o5
v0
n7.0
o5
v1
n0.93
o44
o2
n-1.0
v0
o2
o2
o2
n-0.384255
o5
v0
n2.0
o5
v1
n1.5
o44
o0
o2
n-0.95
o5
o0
v1
n-1.94
n2.0
o2
n-1.53
o5
o0
v0
n-0.625
n2.0
o2
o2
o2
n-0.25585860000000005
o5
v0
n2.0
o5
v1
n2.33
o44
o0
o2
n-0.5
o5
o0
v1
n-0.22
n2.0
o2
n-0.86
o5
o0
v0
n-0.77
n2.0
o2
o2
o2
n-0.545607
o5
v0
n2.0
o5
v1
n1.5
o44
o2
n-1.0
v0
o2
o2
o2
n-0.2713445
o5
v0
n6.0
o5
v1
n0.93
o44
o2
n-1.0
v0
o2
o2
o2
n-0.419482
v0
o5
v1
n2.9
o44
o16
o5
v0
n2.0
o2
o2
o2
n-0.00778762
v0
v1
o44
o0
o2
n-5.13
o5
o0
v0
n-0.42
n2.0
o2
n-0.23
o5
o0
v1
n-1.21
n2.0
o2
o2
o2
n-1.307787
o5
v0
n2.0
o5
v1
n1.8
o44
o16
o5
v0
n2.0
o2
o2
o2
o2
n0.677674
v0
o5
v1
n1.05
o0
o2
n-1.72
v0
n1.17648
o44
o0
o2
n-0.63
o5
o0
v1
n-1.22
n2.0
o2
n-0.86
o5
o0
v0
n-0.684
n2.0
o2
o2
o2
o2
n-0.128085
o5
v0
n3.0
o5
v1
n1.5
o0
o2
n-3.06
v0
n1.9125
o44
o0
o2
n-0.95
o5
o0
v1
n-1.94
n2.0
o2
n-1.53
o5
o0
v0
n-0.625
n2.0
o2
o2
o2
o2
n-0.0852862
o5
v0
n3.0
o5
v1
n2.33
o0
o2
n-1.72
v0
n1.3244
o44
o0
o2
n-0.5
o5
o0
v1
n-0.22
n2.0
o2
n-0.86
o5
o0
v0
n-0.77
n2.0
o2
o2
o2
o2
n-0.00389381
v1
o5
v0
n2.0
o0
o2
n-10.26
v0
n4.3092
o44
o0
o2
n-5.13
o5
o0
v0
n-0.42
n2.0
o2
n-0.23
o5
o0
v1
n-1.21
n2.0
o2
o2
o2
o2
n-0.137043
v0
o5
v1
n4.0
o0
o2
n-1.7
v0
n1.19
o44
o0
o2
n-2.8
o5
o0
v1
n-0.32
n2.0
o2
n-0.85
o5
o0
v0
n-0.7
n2.0
O7 0
o54
41
o2
n-0.969772
o5
v1
n1.185
o2
o2
n1.091214
o5
v1
n1.5
o44
o2
n-1.0
v0
o2
o2
n0.7571136
v1
o5
v0
n2.0
o2
o2
n1.1510580000000001
o5
v1
n0.45
v0
o2
o2
n-0.419482
o5
v1
n2.9
o44
o16
o5
v0
n2.0
o2
o2
n-0.00778762
v1
o44
o0
o2
n-5.13
o5
o0
v0
n-0.42
n2.0
o2
n-0.23
o5
o0
v1
n-1.21
n2.0
o2
o2
o2
n0.0399504906
v1
o5
v0
n2.0
o44
o0
o2
n-5.13
o5
o0
v0
n-0.42
n2.0
o2
n-0.23
o5
o0
v1
n-1.21
n2.0
o2
o2
o2
n2.09741
o5
v1
n2.9
o5
v0
n2.0
o44
o16
o5
v0
n2.0
o2
o2
o2
n6.103006000000001
o5
v1
n1.8
o5
v0
n3.0
o44
o16
o5
v0
n2.0
o2
o2
o2
n0.545607
o5
v1
n1.5
o5
v0
n2.0
o44
o2
n-1.0
v0
o2
o2
o2
n0.14669226400000002
o5
v1
n2.33
o5
v0
n3.0
o44
o0
o2
n-0.5
o5
o0
v1
n-0.22
n2.0
o2
n-0.86
o5
o0
v0
n-0.77
n2.0
o2
o2
o2
n0.3919401
o5
v1
n1.5
o5
v0
n3.0
o44
o0
o2
n-0.95
o5
o0
v1
n-1.94
n2.0
o2
n-1.53
o5
o0
v0
n-0.625
n2.0
o2
o2
o2
n0.542689
o5
v1
n0.93
o5
v0
n6.0
o44
o2
n-1.0
v0
o2
o2
o2
n0.2329731
v0
o5
v1
n4.0
o44
o0
o2
n-2.8
o5
o0
v1
n-0.32
n2.0
o2
n-0.85
o5
o0
v0
n-0.7
n2.0
o2
o2
o2
n0.2329731
o5
v1
n4.0
o0
v0
n-0.7
o44
o0
o2
n-2.8
o5
o0
v1
n-0.32
n2.0
o2
n-0.85
o5
o0
v0
n-0.7
n2.0
o2
o2
o2
n5.013492
o5
v1
n2.28
v0
o44
o16
o5
v0
n2.0
o2
o2
o2
n0.677674
o5
v1
n1.05
o0
o2
n-1.72
v0
n1.17648
o44
o0
o2
n-0.63
o5
o0
v1
n-1.22
n2.0
o2
n-0.86
o5
o0
v0
n-0.684
n2.0
o2
o2
o2
n-0.76851
o5
v1
n1.5
v0
o44
o0
o2
n-0.95
o5
o0
v1
n-1.94
n2.0
o2
n-1.53
o5
o0
v0
n-0.625
n2.0
o2
o2
o2
n-0.5117172000000001
o5
v1
n2.33
v0
o44
o0
o2
n-0.5
o5
o0
v1
n-0.22
n2.0
o2
n-0.86
o5
o0
v0
n-0.77
n2.0
o2
o2
o2
n-1.091214
v0
o5
v1
n1.5
o44
o2
n-1.0
v0
o2
o2
o2
n-1.091214
o5
v1
n1.5
v0
o44
o2
n-1.0
v0
o2
o2
o2
n-3.342328
o5
v1
n2.28
o5
v0
n3.0
o44
o16
o5
v0
n2.0
o2
o2
o2
n-1.743716
o5
v1
n1.8
o5
v0
n5.0
o44
o16
o5
v0
n2.0
o2
o2
o2
n-1.16559928
v0
o5
v1
n1.05
o44
o0
o2
n-0.63
o5
o0
v1
n-1.22
n2.0
o2
n-0.86
o5
o0
v0
n-0.684
n2.0
o2
o2
o2
n-1.16559928
o5
v1
n1.05
o0
v0
n-0.684
o44
o0
o2
n-0.63
o5
o0
v1
n-1.22
n2.0
o2
n-0.86
o5
o0
v0
n-0.684
n2.0
o2
o2
o2
n-0.838964
o5
v1
n2.9
o5
v0
n4.0
o44
o16
o5
v0
n2.0
o2
o2
o2
n-0.137043
o5
v1
n4.0
o0
o2
n-1.7
v0
n1.19
o44
o0
o2
n-2.8
o5
o0
v1
n-0.32
n2.0
o2
n-0.85
o5
o0
v0
n-0.7
n2.0
o2
o2
o2
n-0.0387635
o5
v1
n0.93
o5
v0
n7.0
o44
o2
n-1.0
v0
o2
o2
o2
n-2.615574
o5
v1
n1.8
v0
o44
o16
o5
v0
n2.0
o2
o2
o2
n-1.628067
o5
v1
n0.93
o5
v0
n5.0
o44
o2
n-1.0
v0
o2
o2
o2
o2
n0.0799009812
v1
v0
o0
v0
n-0.42
o44
o0
o2
n-5.13
o5
o0
v0
n-0.42
n2.0
o2
n-0.23
o5
o0
v1
n-1.21
n2.0
o2
o2
o2
o2
n0.44007679200000005
o5
v1
n2.33
o5
v0
n2.0
o0
v0
n-0.77
o44
o0
o2
n-0.5
o5
o0
v1
n-0.22
n2.0
o2
n-0.86
o5
o0
v0
n-0.77
n2.0
o2
o2
o2
o2
n1.1758203
o5
v1
n1.5
o5
v0
n2.0
o0
v0
n-0.625
o44
o0
o2
n-0.95
o5
o0
v1
n-1.94
n2.0
o2
n-1.53
o5
o0
v0
n-0.625
n2.0
o2
o2
o2
o2
n-0.384255
o5
v1
n1.5
o5
v0
n2.0
o0
o2
n-3.06
v0
n1.9125
o44
o0
o2
n-0.95
o5
o0
v1
n-1.94
n2.0
o2
n-1.53
o5
o0
v0
n-0.625
n2.0
o2
o2
o2
o2
n-0.25585860000000005
o5
v1
n2.33
o5
v0
n2.0
o0
o2
n-1.72
v0
n1.3244
o44
o0
o2
n-0.5
o5
o0
v1
n-0.22
n2.0
o2
n-0.86
o5
o0
v0
n-0.77
n2.0
o2
o2
o2
o2
n-0.00778762
v1
v0
o0
o2
n-10.26
v0
n4.3092
o44
o0
o2
n-5.13
o5
o0
v0
n-0.42
n2.0
o2
n-0.23
o5
o0
v1
n-1.21
n2.0
o2
o2
o2
o2
o2
n0.0399504906
v1
o5
v0
n2.0
o0
v0
n-0.42
o0
o2
n-10.26
v0
n4.3092
o44
o0
o2
n-5.13
o5
o0
v0
n-0.42
n2.0
o2
n-0.23
o5
o0
v1
n-1.21
n2.0
o2
o2
o2
o2
o2
n0.14669226400000002
o5
v1
n2.33
o5
v0
n3.0
o0
v0
n-0.77
o0
o2
n-1.72
v0
n1.3244
o44
o0
o2
n-0.5
o5
o0
v1
n-0.22
n2.0
o2
n-0.86
o5
o0
v0
n-0.77
n2.0
o2
o2
o2
o2
o2
n0.3919401
o5
v1
n1.5
o5
v0
n3.0
o0
v0
n-0.625
o0
o2
n-3.06
v0
n1.9125
o44
o0
o2
n-0.95
o5
o0
v1
n-1.94
n2.0
o2
n-1.53
o5
o0
v0
n-0.625
n2.0
o2
o2
o2
o2
o2
n0.2329731
v0
o5
v1
n4.0
o0
v0
n-0.7
o0
o2
n-1.7
v0
n1.19
o44
o0
o2
n-2.8
o5
o0
v1
n-0.32
n2.0
o2
n-0.85
o5
o0
v0
n-0.7
n2.0
o2
o2
o2
o2
o2
n-1.16559928
v0
o5
v1
n1.05
o0
v0
n-0.684
o0
o2
n-1.72
v0
n1.17648
o44
o0
o2
n-0.63
o5
o0
v1
n-1.22
n2.0
o2
n-0.86
o5
o0
v0
n-0.684
n2.0
O8 0
o54
20
o2
n0.0630928
o5
v0
n4.0
o2
o2
n0.08632935000000001
o5
v0
n3.0
o5
v1
n-0.55
o2
o2
n0.43605849999999996
v0
o5
v1
n-0.71
o2
o2
n-2.0153415
v0
o5
v1
n-0.15000000000000002
o2
o2
n-0.57458991
o5
v0
n2.0
o5
v1
n0.18500000000000005
o2
o2
n-0.00389381
o5
v0
n2.0
o44
o0
o2
n-5.13
o5
o0
v0
n-0.42
n2.0
o2
n-0.23
o5
o0
v1
n-1.21
n2.0
o2
o2
o2
n0.8184104999999999
o5
v0
n2.0
o5
v1
n0.5
o44
o2
n-1.0
v0
o2
o2
o2
n0.7115577000000001
v0
o5
v1
n0.050000000000000044
o44
o0
o2
n-0.63
o5
o0
v1
n-1.22
n2.0
o2
n-0.86
o5
o0
v0
n-0.684
n2.0
o2
o2
o2
n-0.1921275
o5
v0
n3.0
o5
v1
n0.5
o44
o0
o2
n-0.95
o5
o0
v1
n-1.94
n2.0
o2
n-1.53
o5
o0
v0
n-0.625
n2.0
o2
o2
o2
n-0.6082489
o5
v0
n2.0
o5
v1
n1.9
o44
o16
o5
v0
n2.0
o2
o2
o2
n-1.90512696
v0
o5
v1
n1.2799999999999998
o44
o16
o5
v0
n2.0
o2
o2
o2
n-0.548172
v0
o5
v1
n3.0
o44
o0
o2
n-2.8
o5
o0
v1
n-0.32
n2.0
o2
n-0.85
o5
o0
v0
n-0.7
n2.0
o2
o2
o2
n-0.036050055000000004
o5
v0
n7.0
o5
v1
n-0.06999999999999995
o44
o2
n-1.0
v0
o2
o2
o2
n-0.7846722
o5
v0
n3.0
o5
v1
n0.8
o44
o16
o5
v0
n2.0
o2
o2
o2
n-0.19871684600000003
o5
v0
n3.0
o5
v1
n1.33
o44
o0
o2
n-0.5
o5
o0
v1
n-0.22
n2.0
o2
n-0.86
o5
o0
v0
n-0.77
n2.0
o2
o2
o2
o2
n0.677674
v0
o5
v1
n1.05
o0
o2
n-1.26
v1
n1.5372
o44
o0
o2
n-0.63
o5
o0
v1
n-1.22
n2.0
o2
n-0.86
o5
o0
v0
n-0.684
n2.0
o2
o2
o2
o2
n-0.128085
o5
v0
n3.0
o5
v1
n1.5
o0
o2
n-1.9
v1
n3.686
o44
o0
o2
n-0.95
o5
o0
v1
n-1.94
n2.0
o2
n-1.53
o5
o0
v0
n-0.625
n2.0
o2
o2
o2
o2
n-0.0852862
o5
v0
n3.0
o5
v1
n2.33
o0
o2
n-1.0
v1
n0.22
o44
o0
o2
n-0.5
o5
o0
v1
n-0.22
n2.0
o2
n-0.86
o5
o0
v0
n-0.77
n2.0
o2
o2
o2
o2
n-0.00389381
v1
o5
v0
n2.0
o0
o2
n-0.46
v1
n0.5566
o44
o0
o2
n-5.13
o5
o0
v0
n-0.42
n2.0
o2
n-0.23
o5
o0
v1
n-1.21
n2.0
o2
o2
o2
o2
n-0.137043
v0
o5
v1
n4.0
o0
o2
n-5.6
v1
n1.7919999999999998
o44
o0
o2
n-2.8
o5
o0
v1
n-0.32
n2.0
o2
n-0.85
o5
o0
v0
n-0.7
n2.0
O9 0
o54
33
o2
o2
n0.302301225
v0
o5
v1
n-1.15
o2
o2
n-0.309601535
v0
o5
v1
n-1.71
o2
o2
n-0.04748114250000001
o5
v0
n3.0
o5
v1
n-1.55
o2
o2
n-0.10629913335000003
o5
v0
n2.0
o5
v1
n-0.815
o2
o2
o2
n0.0017911526
v1
o5
v0
n2.0
o44
o0
o2
n-5.13
o5
o0
v0
n-0.42
n2.0
o2
n-0.23
o5
o0
v1
n-1.21
n2.0
o2
o2
o2
n0.0017911526
o5
v0
n2.0
o0
v1
n-1.21
o44
o0
o2
n-5.13
o5
o0
v0
n-0.42
n2.0
o2
n-0.23
o5
o0
v1
n-1.21
n2.0
o2
o2
o2
n0.2433615
o5
v0
n3.0
o5
v1
n1.5
o44
o0
o2
n-0.95
o5
o0
v1
n-1.94
n2.0
o2
n-1.53
o5
o0
v0
n-0.625
n2.0
o2
o2
o2
n0.0852862
o5
v0
n3.0
o5
v1
n2.33
o44
o0
o2
n-0.5
o5
o0
v1
n-0.22
n2.0
o2
n-0.86
o5
o0
v0
n-0.77
n2.0
o2
o2
o2
n0.7674407999999999
v0
o5
v1
n4.0
o44
o0
o2
n-2.8
o5
o0
v1
n-0.32
n2.0
o2
n-0.85
o5
o0
v0
n-0.7
n2.0
o2
o2
o2
n0.40920524999999996
o5
v0
n2.0
o5
v1
n-0.5
o44
o2
n-1.0
v0
o2
o2
o2
n0.03557788500000004
v0
o5
v1
n-0.95
o44
o0
o2
n-0.63
o5
o0
v1
n-1.22
n2.0
o2
n-0.86
o5
o0
v0
n-0.684
n2.0
o2
o2
o2
n0.0025235038499999986
o5
v0
n7.0
o5
v1
n-1.0699999999999998
o44
o2
n-1.0
v0
o2
o2
o2
n-1.1556729099999998
o5
v0
n2.0
o5
v1
n0.8999999999999999
o44
o16
o5
v0
n2.0
o2
o2
o2
n-0.09606375
o5
v0
n3.0
o5
v1
n-0.5
o44
o0
o2
n-0.95
o5
o0
v1
n-1.94
n2.0
o2
n-1.53
o5
o0
v0
n-0.625
n2.0
o2
o2
o2
n-0.62773776
o5
v0
n3.0
o5
v1
n-0.19999999999999996
o44
o16
o5
v0
n2.0
o2
o2
o2
n-2.4385625087999996
v0
o5
v1
n0.2799999999999998
o44
o16
o5
v0
n2.0
o2
o2
o2
n-1.6445159999999999
v0
o5
v1
n2.0
o44
o0
o2
n-2.8
o5
o0
v1
n-0.32
n2.0
o2
n-0.85
o5
o0
v0
n-0.7
n2.0
o2
o2
o2
n-0.00389381
o5
v0
n2.0
o0
o2
n-0.46
v1
n0.5566
o44
o0
o2
n-5.13
o5
o0
v0
n-0.42
n2.0
o2
n-0.23
o5
o0
v1
n-1.21
n2.0
o2
o2
o2
n-0.26429340518000005
o5
v0
n3.0
o5
v1
n0.33000000000000007
o44
o0
o2
n-0.5
o5
o0
v1
n-0.22
n2.0
o2
n-0.86
o5
o0
v0
n-0.77
n2.0
o2
o2
o2
n-0.85386924
v0
o5
v1
n1.05
o44
o0
o2
n-0.63
o5
o0
v1
n-1.22
n2.0
o2
n-0.86
o5
o0
v0
n-0.684
n2.0
o2
o2
o2
o2
n0.36504225
o5
v0
n3.0
o5
v1
n0.5
o0
v1
n-1.94
o44
o0
o2
n-0.95
o5
o0
v1
n-1.94
n2.0
o2
n-1.53
o5
o0
v0
n-0.625
n2.0
o2
o2
o2
o2
n3.0697631999999997
v0
o5
v1
n3.0
o0
v1
n-0.32
o44
o0
o2
n-2.8
o5
o0
v1
n-0.32
n2.0
o2
n-0.85
o5
o0
v0
n-0.7
n2.0
o2
o2
o2
o2
n0.7115577000000001
v0
o5
v1
n0.050000000000000044
o0
o2
n-1.26
v1
n1.5372
o44
o0
o2
n-0.63
o5
o0
v1
n-1.22
n2.0
o2
n-0.86
o5
o0
v0
n-0.684
n2.0
o2
o2
o2
o2
n0.19871684600000003
o5
v0
n3.0
o5
v1
n1.33
o0
v1
n-0.22
o44
o0
o2
n-0.5
o5
o0
v1
n-0.22
n2.0
o2
n-0.86
o5
o0
v0
n-0.77
n2.0
o2
o2
o2
o2
n-0.1921275
o5
v0
n3.0
o5
v1
n0.5
o0
o2
n-1.9
v1
n3.686
o44
o0
o2
n-0.95
o5
o0
v1
n-1.94
n2.0
o2
n-1.53
o5
o0
v0
n-0.625
n2.0
o2
o2
o2
o2
n-0.548172
v0
o5
v1
n3.0
o0
o2
n-5.6
v1
n1.7919999999999998
o44
o0
o2
n-2.8
o5
o0
v1
n-0.32
n2.0
o2
n-0.85
o5
o0
v0
n-0.7
n2.0
o2
o2
o2
o2
n-0.19871684600000003
o5
v0
n3.0
o5
v1
n1.33
o0
o2
n-1.0
v1
n0.22
o44
o0
o2
n-0.5
o5
o0
v1
n-0.22
n2.0
o2
n-0.86
o5
o0
v0
n-0.77
n2.0
o2
o2
o2
o2
n-0.8965627020000001
v0
o5
v1
n0.050000000000000044
o0
v1
n-1.22
o44
o0
o2
n-0.63
o5
o0
v1
n-1.22
n2.0
o2
n-0.86
o5
o0
v0
n-0.684
n2.0
o2
o2
o2
o2
o2
n0.0017911526
v1
o5
v0
n2.0
o0
v1
n-1.21
o0
o2
n-0.46
v1
n0.5566
o44
o0
o2
n-5.13
o5
o0
v0
n-0.42
n2.0
o2
n-0.23
o5
o0
v1
n-1.21
n2.0
o2
o2
o2
o2
o2
n0.2433615
o5
v0
n3.0
o5
v1
n1.5
o0
v1
n-1.94
o0
o2
n-1.9
v1
n3.686
o44
o0
o2
n-0.95
o5
o0
v1
n-1.94
n2.0
o2
n-1.53
o5
o0
v0
n-0.625
n2.0
o2
o2
o2
o2
o2
n0.0852862
o5
v0
n3.0
o5
v1
n2.33
o0
v1
n-0.22
o0
o2
n-1.0
v1
n0.22
o44
o0
o2
n-0.5
o5
o0
v1
n-0.22
n2.0
o2
n-0.86
o5
o0
v0
n-0.77
n2.0
o2
o2
o2
o2
o2
n0.7674407999999999
v0
o5
v1
n4.0
o0
v1
n-0.32
o0
o2
n-5.6
v1
n1.7919999999999998
o44
o0
o2
n-2.8
o5
o0
v1
n-0.32
n2.0
o2
n-0.85
o5
o0
v0
n-0.7
n2.0
o2
o2
o2
o2
o2
n-0.85386924
v0
o5
v1
n1.05
o0
v1
n-1.22
o0
o2
n-1.26
v1
n1.5372
o44
o0
o2
n-0.63
o5
o0
v1
n-1.22
n2.0
o2
n-0.86
o5
o0
v0
n-0.684
n2.0
O10 0
o54
35
o2
n0.2523712
o5
v0
n3.0
o2
n0.43605849999999996
o5
v1
n-0.71
o2
n-2.0153415
o5
v1
n-0.15000000000000002
o2
o2
n0.25898805
o5
v1
n-0.55
o5
v0
n2.0
o2
o2
n0.7115577000000001
o5
v1
n0.050000000000000044
o44
o0
o2
n-0.63
o5
o0
v1
n-1.22
n2.0
o2
n-0.86
o5
o0
v0
n-0.684
n2.0
o2
o2
n-1.14917982
v0
o5
v1
n0.18500000000000005
o2
o2
n-1.90512696
o5
v1
n1.2799999999999998
o44
o16
o5
v0
n2.0
o2
o2
n-0.00778762
v0
o44
o0
o2
n-5.13
o5
o0
v0
n-0.42
n2.0
o2
n-0.23
o5
o0
v1
n-1.21
n2.0
o2
o2
n-0.548172
o5
v1
n3.0
o44
o0
o2
n-2.8
o5
o0
v1
n-0.32
n2.0
o2
n-0.85
o5
o0
v0
n-0.7
n2.0
o2
o2
o2
n1.2164978
o5
v1
n1.9
o5
v0
n3.0
o44
o16
o5
v0
n2.0
o2
o2
o2
n0.7674407999999999
o5
v1
n4.0
o0
v1
n-0.32
o44
o0
o2
n-2.8
o5
o0
v1
n-0.32
n2.0
o2
n-0.85
o5
o0
v0
n-0.7
n2.0
o2
o2
o2
n1.6368209999999999
v0
o5
v1
n0.5
o44
o2
n-1.0
v0
o2
o2
o2
n3.81025392
o5
v1
n1.2799999999999998
o5
v0
n2.0
o44
o16
o5
v0
n2.0
o2
o2
o2
n0.036050055000000004
o5
v1
n-0.06999999999999995
o5
v0
n7.0
o44
o2
n-1.0
v0
o2
o2
o2
n1.5693444
o5
v1
n0.8
o5
v0
n4.0
o44
o16
o5
v0
n2.0
o2
o2
o2
n-1.2164978
v0
o5
v1
n1.9
o44
o16
o5
v0
n2.0
o2
o2
o2
n-0.5763825
o5
v1
n0.5
o5
v0
n2.0
o44
o0
o2
n-0.95
o5
o0
v1
n-1.94
n2.0
o2
n-1.53
o5
o0
v0
n-0.625
n2.0
o2
o2
o2
n-0.8184104999999999
o5
v1
n0.5
o5
v0
n2.0
o44
o2
n-1.0
v0
o2
o2
o2
n-0.00389381
o5
v0
n2.0
o0
o2
n-10.26
v0
n4.3092
o44
o0
o2
n-5.13
o5
o0
v0
n-0.42
n2.0
o2
n-0.23
o5
o0
v1
n-1.21
n2.0
o2
o2
o2
n-0.252350385
o5
v1
n-0.06999999999999995
o5
v0
n6.0
o44
o2
n-1.0
v0
o2
o2
o2
n-2.3540166
o5
v1
n0.8
o5
v0
n2.0
o44
o16
o5
v0
n2.0
o2
o2
o2
n-0.5961505380000002
o5
v1
n1.33
o5
v0
n2.0
o44
o0
o2
n-0.5
o5
o0
v1
n-0.22
n2.0
o2
n-0.86
o5
o0
v0
n-0.77
n2.0
o2
o2
o2
n-0.85386924
o5
v1
n1.05
o0
v1
n-1.22
o44
o0
o2
n-0.63
o5
o0
v1
n-1.22
n2.0
o2
n-0.86
o5
o0
v0
n-0.684
n2.0
o2
o2
o2
o2
n0.0035823052
v1
v0
o0
v1
n-1.21
o44
o0
o2
n-5.13
o5
o0
v0
n-0.42
n2.0
o2
n-0.23
o5
o0
v1
n-1.21
n2.0
o2
o2
o2
o2
n0.25585860000000005
o5
v1
n2.33
o5
v0
n2.0
o0
v1
n-0.22
o44
o0
o2
n-0.5
o5
o0
v1
n-0.22
n2.0
o2
n-0.86
o5
o0
v0
n-0.77
n2.0
o2
o2
o2
o2
n0.7300845
o5
v1
n1.5
o5
v0
n2.0
o0
v1
n-1.94
o44
o0
o2
n-0.95
o5
o0
v1
n-1.94
n2.0
o2
n-1.53
o5
o0
v0
n-0.625
n2.0
o2
o2
o2
o2
n0.7115577000000001
v0
o5
v1
n0.050000000000000044
o0
o2
n-1.72
v0
n1.17648
o44
o0
o2
n-0.63
o5
o0
v1
n-1.22
n2.0
o2
n-0.86
o5
o0
v0
n-0.684
n2.0
o2
o2
o2
o2
n-0.1921275
o5
v1
n0.5
o5
v0
n3.0
o0
o2
n-3.06
v0
n1.9125
o44
o0
o2
n-0.95
o5
o0
v1
n-1.94
n2.0
o2
n-1.53
o5
o0
v0
n-0.625
n2.0
o2
o2
o2
o2
n-0.548172
v0
o5
v1
n3.0
o0
o2
n-1.7
v0
n1.19
o44
o0
o2
n-2.8
o5
o0
v1
n-0.32
n2.0
o2
n-0.85
o5
o0
v0
n-0.7
n2.0
o2
o2
o2
o2
n-0.19871684600000003
o5
v1
n1.33
o5
v0
n3.0
o0
o2
n-1.72
v0
n1.3244
o44
o0
o2
n-0.5
o5
o0
v1
n-0.22
n2.0
o2
n-0.86
o5
o0
v0
n-0.77
n2.0
o2
o2
o2
o2
o2
n0.0017911526
v1
o5
v0
n2.0
o0
v1
n-1.21
o0
o2
n-10.26
v0
n4.3092
o44
o0
o2
n-5.13
o5
o0
v0
n-0.42
n2.0
o2
n-0.23
o5
o0
v1
n-1.21
n2.0
o2
o2
o2
o2
o2
n0.2433615
o5
v1
n1.5
o5
v0
n3.0
o0
v1
n-1.94
o0
o2
n-3.06
v0
n1.9125
o44
o0
o2
n-0.95
o5
o0
v1
n-1.94
n2.0
o2
n-1.53
o5
o0
v0
n-0.625
n2.0
o2
o2
o2
o2
o2
n0.0852862
o5
v1
n2.33
o5
v0
n3.0
o0
v1
n-0.22
o0
o2
n-1.72
v0
n1.3244
o44
o0
o2
n-0.5
o5
o0
v1
n-0.22
n2.0
o2
n-0.86
o5
o0
v0
n-0.77
n2.0
o2
o2
o2
o2
o2
n0.7674407999999999
v0
o5
v1
n4.0
o0
v1
n-0.32
o0
o2
n-1.7
v0
n1.19
o44
o0
o2
n-2.8
o5
o0
v1
n-0.32
n2.0
o2
n-0.85
o5
o0
v0
n-0.7
n2.0
o2
o2
o2
o2
o2
n-0.85386924
v0
o5
v1
n1.05
o0
v1
n-1.22
o0
o2
n-1.72
v0
n1.17648
o44
o0
o2
n-0.63
o5
o0
v1
n-1.22
n2.0
o2
n-0.86
o5
o0
v0
n-0.684
n2.0
O11 0
o0
o54
6
o2
n4.175321169438228
o5
o0
o16
o3
n1
v1
n1
n0.545
o2
n-3.3972763608243954
o5
o0
o16
o3
n1
v1
n1
n1.142
o2
n3.265444750596592
o5
o0
o16
o3
n1
v1
n1
n2.232
o2
n-14.140653461920774
o5
o0
o16
o3
n1
v1
n1
n6.456
o2
n419.1357335784064
o5
o0
o16
o3
n1
v1
n1
n11.186
o2
n-484.6437448434436
o5
o0
o16
o3
n1
v1
n1
n11.952
n1.0
O12 0
o44
o2
v1
o54
6
o2
n-5.935725453092267
o5
o0
o16
o3
n1
v1
n1
n0.602
o2
n1.591120947182766
o5
o0
o16
o3
n1
v1
n1
n1.076
o2
n-8.958815994240467
o5
o0
o16
o3
n1
v1
n1
n3.895
o2
n198.61227335356796
o5
o0
o16
o3
n1
v1
n1
n8.292
o2
n-245.69777423593865
o5
o0
o16
o3
n1
v1
n1
n8.939
o2
n469.5550522878147
o5
o0
o16
o3
n1
v1
n1
n18.105
O13 0
n0.0
x2
0 1.00000001
1 1.0
r
b
3
3
k1
0
G0 2
0 0
1 2.4918910143
G1 1
0 0
G2 1
0 0
G3 1
1 0
G4 1
1 0
G5 2
0 0
1 0
G6 2
0 0
1 0
G7 2
0 0
1 0
G8 2
0 0
1 0
G9 2
0 0
1 0
G10 2
0 0
1 0
G11 1
1 0
G12 1
1 0
